Route 1: 27 69 28 53 40 58 94 99 96 93 92 13 89
Route 2: 95 2 21 73 72 75 56 4 26 80 68
Route 3: 5 59 98 61 85 100 37 97 6 60
Route 4: 76 77 12 3 79 50 33 1 70
Route 5: 52 88 7 82 18 8 84 17 45
Route 6: 31 62 63 90 10 30 20 32
Route 7: 14 42 15 57 87 22 41 74
Route 8: 83 16 86 38 44 43 91
Route 9: 23 67 39 25 55 24 54
Route 10: 29 78 9 81 51 34 35
Route 11: 11 19 36 47 49 46 48
Route 12: 71 65 66 64
Vehicles: 12
Distance: 1395.90
